certificates/rado_a7_c52_N16.cnf
c Rad2 upper bound instance: x1 + 7*x2 - x3 = 52, interval [1,16]
p cnf 16 70
1 5 8 0
-1 -5 -8 0
1 9 12 0
-1 -9 -12 0
2 6 8 0
-2 -6 -8 0
2 9 13 0
-2 -9 -13 0
3 7 8 0
-3 -7 -8 0
3 9 14 0
-3 -9 -14 0
1 4 7 0
-1 -4 -7 0
4 8 0
-4 -8 0
4 9 15 0
-4 -9 -15 0
2 5 7 0
-2 -5 -7 0
5 8 9 0
-5 -8 -9 0
5 9 16 0
-5 -9 -16 0
3 6 7 0
-3 -6 -7 0
6 8 10 0
-6 -8 -10 0
4 7 0
-4 -7 0
7 8 11 0
-7 -8 -11 0
5 7 8 0
-5 -7 -8 0
8 12 0
-8 -12 0
6 7 9 0
-6 -7 -9 0
8 9 13 0
-8 -9 -13 0
7 10 0
-7 -10 0
8 10 14 0
-8 -10 -14 0
1 6 11 0
-1 -6 -11 0
8 11 15 0
-8 -11 -15 0
2 6 12 0
-2 -6 -12 0
7 9 12 0
-7 -9 -12 0
8 12 16 0
-8 -12 -16 0
3 6 13 0
-3 -6 -13 0
7 10 13 0
-7 -10 -13 0
4 6 14 0
-4 -6 -14 0
7 11 14 0
-7 -11 -14 0
5 6 15 0
-5 -6 -15 0
7 12 15 0
-7 -12 -15 0
6 16 0
-6 -16 0
7 13 16 0
-7 -13 -16 0
