certificates/rado_a7_c52_N16.drat
7 -15 6 0
-7 -16 0
-16 0
6 0
-7 15 0
7 0
-4 0
-10 0
-3 0
-9 0
15 0
8 0
14 0
5 0
0
